RT is False
Default write of storage_offers_DA.csv just to have a file (but constraint should be inactive)
Reading model...
...model read.
creating competitive generators file...
...competitive generators recorded.
Loading data...
.. day-ahead data with real-time VRE data read.
Compiling instance...
...instance created.
Creating Offer Mitigation (model will solve as dispatch if TRUE)...
Solving...

Welcome to IBM(R) ILOG(R) CPLEX(R) Interactive Optimizer 12.9.0.0
  with Simplex, Mixed Integer & Barrier Optimizers
5725-A06 5725-A29 5724-Y48 5724-Y49 5724-Y54 5724-Y55 5655-Y21
Copyright IBM Corp. 1988, 2019.  All Rights Reserved.

Type 'help' for a list of available commands.
Type 'help' followed by a command name for more
information on commands.

CPLEX> Logfile 'cplex.log' closed.
Logfile 'C:\Users\llavin\Desktop\test919\logs\tmpzus75iam.cplex.log' open.
CPLEX> New value for parallel optimization mode: -1
CPLEX> New value for mixed integer optimality gap tolerance: 0.01
CPLEX> New value for integrality tolerance: 1e-09
CPLEX> New value for feasibility tolerance: 0.01
CPLEX> New value for deterministic time limit in ticks: 75000
CPLEX> Problem 'C:\Users\llavin\Desktop\test919\logs\tmphxttapim.pyomo.lp' read.
Read time = 0.06 sec. (3.04 ticks)
CPLEX> Problem name         : C:\Users\llavin\Desktop\test919\logs\tmphxttapim.pyomo.lp
Objective sense      : Minimize
Variables            :   26081  [Nneg: 1,  Box: 21616,  Free: 4464]
Objective nonzeros   :    2496
Linear constraints   :   27515  [Less: 14006,  Greater: 4416,  Equal: 9093]
  Nonzeros           :   89267
  RHS nonzeros       :   12264

Variables            : Min LB: -5000.000        Max UB: 1000000.       
Objective nonzeros   : Min   : 15.73158         Max   : 124.0997       
Linear constraints   :
  Nonzeros           : Min   : 0.8500000        Max   : 3000.000       
  RHS nonzeros       : Min   : 0.008333333      Max   : 5000.000       
CPLEX> CPXPARAM_Parallel                                -1
CPXPARAM_Simplex_Tolerances_Feasibility          0.01
CPXPARAM_DetTimeLimit                            75000
CPXPARAM_MIP_Tolerances_MIPGap                   0.01
CPXPARAM_MIP_Tolerances_Integrality              1.0000000000000001e-09
Parallel mode: opportunistic, using up to 32 threads for concurrent optimization.
Tried aggregator 1 time.
LP Presolve eliminated 21353 rows and 15463 columns.
Aggregator did 776 substitutions.
Reduced LP has 5386 rows, 9842 columns, and 31800 nonzeros.
Presolve time = 0.06 sec. (30.46 ticks)
Symmetry aggregator did 5563 additional substitutions.

Iteration log . . .
Iteration:     1   Dual objective     =             0.000000
Perturbation started.
Iteration:   101   Dual objective     =             0.000000
Iteration:   337   Dual objective     =             1.207886
Iteration:   576   Dual objective     =             1.701005
Iteration:   823   Dual objective     =             1.833471
Iteration:  1017   Dual objective     =             1.950471
Iteration:  1292   Dual objective     =             2.004570
Iteration:  1535   Dual objective     =             2.034731
Iteration:  1759   Dual objective     =             2.055700
Iteration:  1974   Dual objective     =             2.079004
Iteration:  2161   Dual objective     =             2.091278
Iteration:  2391   Dual objective     =          3879.055730
Iteration:  2659   Dual objective     =         13789.737644
Iteration:  3032   Dual objective     =         17173.058604
Removing perturbation.
Dual superbasis not built.
Using devex.

Primal simplex solved model.


Primal simplex - Optimal:  Objective =  1.7192522654e+04
Solution time =    0.17 sec.  Iterations = 1492 (1067)
Deterministic time = 77.55 ticks  (453.51 ticks/sec)

CPLEX> Solution written to file 'C:\Users\llavin\Desktop\test919\logs\tmp5ebfpjpk.cplex.sol'.
CPLEX> Exporting results... 
...storage offer mitigation file created
Converting model to MPEC...
...converted
NOTE: initial MIP solve with only storage competitive to get feasible solution
Solving...

Welcome to IBM(R) ILOG(R) CPLEX(R) Interactive Optimizer 12.9.0.0
  with Simplex, Mixed Integer & Barrier Optimizers
5725-A06 5725-A29 5724-Y48 5724-Y49 5724-Y54 5724-Y55 5655-Y21
Copyright IBM Corp. 1988, 2019.  All Rights Reserved.

Type 'help' for a list of available commands.
Type 'help' followed by a command name for more
information on commands.

CPLEX> Logfile 'cplex.log' closed.
Logfile 'C:\Users\llavin\Desktop\test919\logs\tmpsdojyb_a.cplex.log' open.
CPLEX> New value for parallel optimization mode: -1
CPLEX> New value for mixed integer optimality gap tolerance: 0.01
CPLEX> New value for integrality tolerance: 1e-09
CPLEX> New value for feasibility tolerance: 0.01
CPLEX> New value for deterministic time limit in ticks: 75000
CPLEX> Problem 'C:\Users\llavin\Desktop\test919\logs\tmp_zwku4rg.pyomo.lp' read.
Read time = 0.23 sec. (14.78 ticks)
CPLEX> Problem name         : C:\Users\llavin\Desktop\test919\logs\tmp_zwku4rg.pyomo.lp
Objective sense      : Maximize
Variables            :   53805  [Nneg: 1,  Box: 22000,  Free: 4464,
                                 Binary: 27340]
Objective nonzeros   :    8973
Linear constraints   :  123205  [Less: 41346,  Greater: 59096,  Equal: 22763]
  Nonzeros           :  291794
  RHS nonzeros       :   67404

Variables            : Min LB: -5000.000        Max UB: 1000000.       
Objective nonzeros   : Min   : 0.008333333      Max   : 833.8833       
Linear constraints   :
  Nonzeros           : Min   : 0.008333333      Max   : 1000000.       
  RHS nonzeros       : Min   : 0.008333333      Max   : 1000000.       
CPLEX> CPXPARAM_Parallel                                -1
CPXPARAM_Simplex_Tolerances_Feasibility          0.01
CPXPARAM_DetTimeLimit                            75000
CPXPARAM_MIP_Tolerances_MIPGap                   0.01
CPXPARAM_MIP_Tolerances_Integrality              1.0000000000000001e-09
Tried aggregator 3 times.
MIP Presolve eliminated 88704 rows and 19001 columns.
MIP Presolve added 3381 rows and 0 columns.
MIP Presolve modified 24849 coefficients.
Aggregator did 12995 substitutions.
Reduced MIP has 24887 rows, 21250 columns, and 71028 nonzeros.
Reduced MIP has 8387 binaries, 0 generals, 0 SOSs, and 0 indicators.
Presolve time = 0.30 sec. (173.78 ticks)
Probing fixed 375 vars, tightened 2804 bounds.
Probing time = 1.25 sec. (878.06 ticks)
Tried aggregator 2 times.
MIP Presolve eliminated 848 rows and 752 columns.
MIP Presolve modified 2185 coefficients.
Aggregator did 40 substitutions.
Reduced MIP has 23999 rows, 20458 columns, and 68460 nonzeros.
Reduced MIP has 8011 binaries, 0 generals, 0 SOSs, and 0 indicators.
Presolve time = 0.11 sec. (67.09 ticks)
Probing time = 0.03 sec. (16.01 ticks)
Clique table members: 6354.
MIP emphasis: balance optimality and feasibility.
MIP search method: dynamic search.
Parallel mode: opportunistic, using up to 32 threads.
Root relaxation solution time = 0.56 sec. (573.32 ticks)

        Nodes                                         Cuts/
   Node  Left     Objective  IInf  Best Integer    Best Bound    ItCnt     Gap

      0     0     2435.0801   688                   2435.0801     6186         
*     0     0      integral     0     2435.0801     2435.0801     6186    0.00%
Elapsed time = 4.03 sec. (3066.13 ticks, tree = 0.01 MB, solutions = 1)

Root node processing (before b&c):
  Real time             =    4.05 sec. (3068.07 ticks)
Parallel b&c, 32 threads:
  Real time             =    0.00 sec. (0.00 ticks)
  Sync time (average)   =    0.00 sec.
  Wait time (average)   =    0.00 sec.
                          ------------
Total (root+branch&cut) =    4.05 sec. (3068.07 ticks)

Solution pool: 1 solution saved.

MIP - Integer optimal solution:  Objective =  2.4350800730e+03
Solution time =    4.08 sec.  Iterations = 6186  Nodes = 0
Deterministic time = 3068.23 ticks  (752.39 ticks/sec)

CPLEX> Incumbent solution written to file 'C:\Users\llavin\Desktop\test919\logs\tmpjwo0r55g.cplex.sol'.
CPLEX> NOTE: no warmstart specified for MIP iteration, default behavior is true
NOTE: resolving with all competitive generators using storage-only solution to warmstart
Solving...

Welcome to IBM(R) ILOG(R) CPLEX(R) Interactive Optimizer 12.9.0.0
  with Simplex, Mixed Integer & Barrier Optimizers
5725-A06 5725-A29 5724-Y48 5724-Y49 5724-Y54 5724-Y55 5655-Y21
Copyright IBM Corp. 1988, 2019.  All Rights Reserved.

Type 'help' for a list of available commands.
Type 'help' followed by a command name for more
information on commands.

CPLEX> Logfile 'cplex.log' closed.
Logfile 'C:\Users\llavin\Desktop\test919\logs\tmpglnvu8hf.cplex.log' open.
CPLEX> New value for parallel optimization mode: -1
CPLEX> New value for mixed integer optimality gap tolerance: 0.01
CPLEX> New value for integrality tolerance: 1e-09
CPLEX> New value for feasibility tolerance: 0.01
CPLEX> New value for deterministic time limit in ticks: 75000
CPLEX> Problem 'C:\Users\llavin\Desktop\test919\logs\tmpmbr9wwtq.pyomo.lp' read.
Read time = 0.23 sec. (14.81 ticks)
CPLEX> MIP start file 'C:\Users\llavin\Desktop\test919\logs\tmpi_ulaqqm.cplex.mst' read.
CPLEX> Problem name         : C:\Users\llavin\Desktop\test919\logs\tmpmbr9wwtq.pyomo.lp
Objective sense      : Maximize
Variables            :   54525  [Nneg: 1,  Box: 22720,  Free: 4464,
                                 Binary: 27340]
Objective nonzeros   :    9669
Linear constraints   :  123205  [Less: 41346,  Greater: 59096,  Equal: 22763]
  Nonzeros           :  291794
  RHS nonzeros       :   67404

Variables            : Min LB: -5000.000        Max UB: 1000000.       
Objective nonzeros   : Min   : 0.008333333      Max   : 786.4000       
Linear constraints   :
  Nonzeros           : Min   : 0.008333333      Max   : 1000000.       
  RHS nonzeros       : Min   : 0.008333333      Max   : 1000000.       
CPLEX> CPXPARAM_Parallel                                -1
CPXPARAM_Simplex_Tolerances_Feasibility          0.01
CPXPARAM_DetTimeLimit                            75000
CPXPARAM_MIP_Tolerances_MIPGap                   0.01
CPXPARAM_MIP_Tolerances_Integrality              1.0000000000000001e-09
Warning:  No solution found from 1 MIP starts.
Retaining values of one MIP start for possible repair.
Tried aggregator 3 times.
MIP Presolve eliminated 88704 rows and 19721 columns.
MIP Presolve added 3381 rows and 0 columns.
MIP Presolve modified 24849 coefficients.
Aggregator did 12995 substitutions.
Reduced MIP has 24887 rows, 21250 columns, and 71028 nonzeros.
Reduced MIP has 8387 binaries, 0 generals, 0 SOSs, and 0 indicators.
Presolve time = 0.28 sec. (174.14 ticks)
Probing fixed 375 vars, tightened 2804 bounds.
Probing time = 1.23 sec. (878.06 ticks)
Tried aggregator 2 times.
MIP Presolve eliminated 848 rows and 752 columns.
MIP Presolve modified 2185 coefficients.
Aggregator did 40 substitutions.
Reduced MIP has 23999 rows, 20458 columns, and 68460 nonzeros.
Reduced MIP has 8011 binaries, 0 generals, 0 SOSs, and 0 indicators.
Presolve time = 0.09 sec. (67.10 ticks)
Probing time = 0.05 sec. (16.01 ticks)
Clique table members: 6354.
MIP emphasis: balance optimality and feasibility.
MIP search method: dynamic search.
Parallel mode: opportunistic, using up to 32 threads.
Root relaxation solution time = 0.38 sec. (298.23 ticks)

        Nodes                                         Cuts/
   Node  Left     Objective  IInf  Best Integer    Best Bound    ItCnt     Gap

      0     0   121333.4020  1764                 121333.4020     5844         
      0     0   117696.8039   714                   Cuts: 552     6145         
      0     0   117297.9896   629                   Cuts: 183     6385         
      0     0   117083.1127   611                   Cuts: 116     6459         
      0     0   116502.6929   568                    Cuts: 98     6513         
      0     0   116452.9111   543                    Cuts: 70     6553         
      0     0   116451.3462   532                    Cuts: 47     6567         
      0     0   116451.3462   520                    Cuts: 49     6578         
      0     0   116451.3462   513                    Cuts: 31     6585         
      0     0   110111.0061   489                    Cuts: 38     6689         
      0     0   110111.0061   489                    Cuts: 48     6701         
Repair heuristic found nothing.
      0     3    91890.6875   473                    Cuts: 24     6835         
Elapsed time = 11.47 sec. (6986.28 ticks, tree = 0.02 MB, solutions = 0)
    359    63    35610.9103   409                  50246.1893    12231         
    906   204    30473.6926   372                  50155.0458    16486         
   1604   994    24013.8139   358                  50155.0458    26991         
   2324  1012    -1851.9069   344                  50155.0458    27214         
   3217  1482    19578.8066   374                  50155.0458    31548         
   4012  2351    10539.5645   325                  50155.0458    33054         
   4826  3062    12744.3039   320                  50155.0458    34351         
   5838  3680     4338.1600   292                  50155.0458    35180         
   7049  5117    13123.7097   281                  50155.0458    35699         
*  8506+ 5836                        -6094.1189    50155.0458           923.01%
Elapsed time = 24.78 sec. (9385.43 ticks, tree = 54.33 MB, solutions = 2)
   9685  7706    infeasible          -6094.1189    15376.6047    42769  352.32%
  10665   719     2435.0801     5     2435.0801    11954.5977    48583  390.93%
* 10718+  481                         2435.0801    11954.5977           390.93%
  11755     8        cutoff           2435.0801     3597.2047    52700   47.72%

Cover cuts applied:  1
Implied bound cuts applied:  17
Flow cuts applied:  9
Mixed integer rounding cuts applied:  3
Gomory fractional cuts applied:  5

Root node processing (before b&c):
  Real time             =   10.00 sec. (6966.12 ticks)
Parallel b&c, 32 threads:
  Real time             =   29.77 sec. (9356.01 ticks)
  Sync time (average)   =    2.07 sec.
  Wait time (average)   =    0.24 sec.
                          ------------
Total (root+branch&cut) =   39.77 sec. (16322.12 ticks)

Solution pool: 5 solutions saved.

MIP - Integer optimal solution:  Objective =  2.4350800731e+03
Solution time =   39.78 sec.  Iterations = 53090  Nodes = 11757
Deterministic time = 16322.28 ticks  (410.30 ticks/sec)

CPLEX> Incumbent solution written to file 'C:\Users\llavin\Desktop\test919\logs\tmpxbowjib8.cplex.sol'.
CPLEX> Exporting results... 
